NAME lp_typeD_4683
OBJSENSE MAX
ROWS
 N  OBJ
 L  c0      
 G  c1      
 G  c2      
 L  c_key_upper
 G  c_key_lower
 G  _saboteur_conflict_c_key_upper
COLUMNS
    x0        OBJ       1.1755326574961869e+00
    x0        c0        1.3907084035460344e+00
    x0        c1        1.5121286257297433e+00
    x0        c2        9.9443752052171008e-01
    x0        c_key_upper  1.5765355545002406e+00
    x0        c_key_lower  1.5765355545002406e+00
    x0        _saboteur_conflict_c_key_upper  1.5765355545002406e+00
    x1        OBJ       6.5958568556542541e-01
    x1        c0        7.4227504379301679e-01
    x1        c1        1.7934823993998337e+00
    x1        c2        1.4595269423424377e+00
    x1        c_key_upper  1.9238977371412966e+00
    x1        c_key_lower  1.9238977371412966e+00
    x1        _saboteur_conflict_c_key_upper  1.9238977371412966e+00
    x2        OBJ       5.4616052703667717e-01
    x2        c0        1.9585103190041415e+00
    x2        c1        0.858454132577117
    x2        c2        7.2229923195479440e-01
    x2        c_key_upper  1.6706396647464790e+00
    x2        c_key_lower  1.6706396647464790e+00
    x2        _saboteur_conflict_c_key_upper  1.6706396647464790e+00
    x3        OBJ       1.1830253550330720e+00
    x3        c0        1.6067158471212613e+00
    x3        c1        1.7354560032535948e+00
    x3        c2        1.2822402320062820e+00
    x3        c_key_upper  1.1954756759653673e+00
    x3        c_key_lower  1.1954756759653673e+00
    x3        _saboteur_conflict_c_key_upper  1.1954756759653673e+00
    x4        OBJ       1.3833708391090569e+00
    x4        c0        9.7050119490454445e-01
    x4        c1        1.7158830836110373e+00
    x4        c2        5.8554103219371667e-01
    x4        c_key_upper  1.0823738651329036e+00
    x4        c_key_lower  1.0823738651329036e+00
    x4        _saboteur_conflict_c_key_upper  1.0823738651329036e+00
    x5        OBJ       8.9058582091116134e-01
    x5        c0        9.1591644312596321e-01
    x5        c1        7.9247728250458072e-01
    x5        c2        1.8474131260036490e+00
    x5        c_key_upper  1.7061737171755356e+00
    x5        c_key_lower  1.7061737171755356e+00
    x5        _saboteur_conflict_c_key_upper  1.7061737171755356e+00
    x6        OBJ       1.4229535020499582e+00
    x6        c0        1.0810351577527768e+00
    x6        c1        1.7854777122189973e+00
    x6        c2        1.4299635767717205e+00
    x6        c_key_upper  1.6657406410426412e+00
    x6        c_key_lower  1.6657406410426412e+00
    x6        _saboteur_conflict_c_key_upper  1.6657406410426412e+00
    x7        OBJ       1.3005546887126771e+00
    x7        c0        1.2544530476853948e+00
    x7        c1        1.2140602438449717e+00
    x7        c2        1.7199768101485837e+00
    x7        c_key_upper  1.8565302147291018e+00
    x7        c_key_lower  1.8565302147291018e+00
    x7        _saboteur_conflict_c_key_upper  1.8565302147291018e+00
    x8        OBJ       6.4774002623725813e-01
    x8        c0        1.18806969121305
    x8        c1        1.3137535978252908e+00
    x8        c2        1.5780498509701193e+00
    x8        c_key_upper  1.2514606714585428e+00
    x8        c_key_lower  1.2514606714585428e+00
    x8        _saboteur_conflict_c_key_upper  1.2514606714585428e+00
    x9        OBJ       1.2593171943382013e+00
    x9        c0        5.9874096961237677e-01
    x9        c1        1.1779288409586144e+00
    x9        c2        7.6893348356696212e-01
    x9        c_key_upper  1.7456363410775311e+00
    x9        c_key_lower  1.7456363410775311e+00
    x9        _saboteur_conflict_c_key_upper  1.7456363410775311e+00
RHS
    RHS1      c0        5.7985607443137248e+01
    RHS1      c1        2.0449531680714919e+01
    RHS1      c2        1.6224071822118990e+01
    RHS1      c_key_upper  7.8372320414848190e+01
    RHS1      c_key_lower  3.9186160207424095e+01
    RHS1      _saboteur_conflict_c_key_upper  1.6674464082969638e+02
BOUNDS
 UP BND1      x0        10
 UP BND1      x1        10
 UP BND1      x2        10
 UP BND1      x3        10
 UP BND1      x4        10
 UP BND1      x5        10
 UP BND1      x6        10
 UP BND1      x7        10
 UP BND1      x8        10
 UP BND1      x9        10
ENDATA
